La4 Ti4 O12                             
   1.00000000000000     
     5.4821301734758112    0.0001178603674331    0.0000344851991320
     0.0000675908533683    5.8432899147240720   -0.0000091609620891
     0.0000564900435839    0.0000199395762898    7.8080515329410369
   Sm   Ti   O 
     4     4    12
Direct
  0.0224316907355635  0.9274181930015772  0.7499953945308351
  0.4775772897960847  0.4274010681111473  0.7499909030065264
  0.5224256188836923  0.5725822277318695  0.2499943558974266
  0.9775524419029932  0.0725935371188078  0.2499888900595958
  0.0000129462959277  0.5000135664564876  0.4999900868290362
  0.5000154736412149 -0.0000138630973861 -0.0000078260845797
  0.4999943755006407  0.0000275798471317  0.5000126767313499
 -0.0000113298240159  0.4999681283306531  0.0000154303842574
  0.6937567703951792  0.3080714497936899  0.4443143482922501
  0.8062206047535724  0.8080310823009101  0.0557003591755126
  0.1937795100936811  0.1919675937313591  0.5557062455283002
  0.3062459580520730  0.6919281171253134  0.9443047511669215
  0.3062251615890216  0.6919666478081296  0.5557008216384708
  0.1937529156763956  0.1919246084417890  0.9443103300404277
  0.8062370010839749  0.8080682617630802  0.4443039926710552
  0.6937818600608193  0.3080318031359632  0.0557001216686857
  0.1177727716611533  0.4621362979950139  0.2499954119323118
  0.3822130321200823  0.9621187343622357  0.2499952172749599
  0.6177812628657517  0.0378711554379505  0.7499942699401618
  0.8822346947161910  0.5378938306042926  0.7499942493164903
 
  0.00000000E+00  0.00000000E+00  0.00000000E+00
  0.00000000E+00  0.00000000E+00  0.00000000E+00
  0.00000000E+00  0.00000000E+00  0.00000000E+00
  0.00000000E+00  0.00000000E+00  0.00000000E+00
  0.00000000E+00  0.00000000E+00  0.00000000E+00
  0.00000000E+00  0.00000000E+00  0.00000000E+00
  0.00000000E+00  0.00000000E+00  0.00000000E+00
  0.00000000E+00  0.00000000E+00  0.00000000E+00
  0.00000000E+00  0.00000000E+00  0.00000000E+00
  0.00000000E+00  0.00000000E+00  0.00000000E+00
  0.00000000E+00  0.00000000E+00  0.00000000E+00
  0.00000000E+00  0.00000000E+00  0.00000000E+00
  0.00000000E+00  0.00000000E+00  0.00000000E+00
  0.00000000E+00  0.00000000E+00  0.00000000E+00
  0.00000000E+00  0.00000000E+00  0.00000000E+00
  0.00000000E+00  0.00000000E+00  0.00000000E+00
  0.00000000E+00  0.00000000E+00  0.00000000E+00
  0.00000000E+00  0.00000000E+00  0.00000000E+00
  0.00000000E+00  0.00000000E+00  0.00000000E+00
  0.00000000E+00  0.00000000E+00  0.00000000E+00
